
  22    4
  10   10   10   10

   0   0   0   0   0   8 2 3 4 6 7 8 9 13 
   8  10  10  10  10   2 10 5 
   4  10  10  10  10   5 21 20 12 11 10 
   9  10  10  10  10   5 21 20 12 11 10 
   5  10  10  10  10   5 21 20 14 12 11 
   1  10  10  10  10   5 21 20 15 12 10 
   7  10  10  10  10   4 21 20 12 10 
  10  10  10  10  10   5 21 20 17 15 12 
   2  10  10  10  10   2 20 10 
   8  10  10  10  10   4 19 18 17 14 
   4  10  10  10  10   3 19 17 15 
   4  10  10  10  10   3 19 18 16 
   9  10  10  10  10   3 18 17 16 
   9  10  10  10  10   1 16 
   6  10  10  10  10   1 16 
   1  10  10  10  10   1 22
   3  10  10  10  10   1 22
   1  10  10  10  10   1 22
   2  10  10  10  10   1 22
  10  10  10  10  10   1 22
   3  10  10  10  10   1 22
   0   0   0   0   0   0 
